Version identifier: 12.10.0.0 | 2019-11-26 | 843d4de
CPXPARAM_WorkMem                                 16384
CPXPARAM_MIP_Limits_TreeMemory                   24576
Tried aggregator 2 times.
Aggregator did 60 substitutions.
Reduced MIP has 325 rows, 400 columns, and 1495 nonzeros.
Reduced MIP has 400 binaries, 0 generals, 0 SOSs, and 0 indicators.
Presolve time = 0,00 sec. (1,41 ticks)
Found incumbent of value 6090,000000 after 0,01 sec. (2,97 ticks)
Probing time = 0,00 sec. (0,57 ticks)
Tried aggregator 1 time.
Detecting symmetries...
MIP Presolve eliminated 85 rows and 0 columns.
MIP Presolve added 170 rows and 0 columns.
Reduced MIP has 410 rows, 400 columns, and 1580 nonzeros.
Reduced MIP has 400 binaries, 0 generals, 0 SOSs, and 0 indicators.
Presolve time = 0,00 sec. (2,01 ticks)
Probing time = 0,00 sec. (0,55 ticks)
Clique table members: 1015.
MIP emphasis: balance optimality and feasibility.
MIP search method: dynamic search.
Parallel mode: deterministic, using up to 16 threads.
Root relaxation solution time = 0,00 sec. (2,73 ticks)

        Nodes                                         Cuts/
   Node  Left     Objective  IInf  Best Integer    Best Bound    ItCnt     Gap

*     0+    0                         6090,0000        0,0000           100,00%
*     0+    0                         3399,0000        0,0000           100,00%
      0     0     1218,0000   370     3399,0000     1218,0000      211   64,17%
      0     0     1224,3764   370     3399,0000     Cuts: 101      336   63,98%
*     0+    0                         3376,0000     1224,3764            63,73%
      0     0     1236,3287   370     3376,0000     Cuts: 202      465   63,38%
      0     0     1237,8358   370     3376,0000     Cuts: 124      504   63,33%
      0     0     1238,2757   370     3376,0000  ZeroHalf: 13      554   63,32%
      0     0     1238,6597   370     3376,0000      Cuts: 71      572   63,31%
*     0+    0                         2890,0000     1238,6597            57,14%
      0     0     1482,6353   370     2890,0000     Cuts: 202     1044   48,70%
      0     0     1501,4600   370     2890,0000     Cuts: 202     1304   48,05%
      0     0     1503,9349   370     2890,0000      Cuts: 83     1319   47,96%
      0     0     1504,6442   370     2890,0000   ZeroHalf: 1     1335   47,94%
      0     0     1505,6662   370     2890,0000   ZeroHalf: 1     1346   47,90%
      0     0     1505,7004   370     2890,0000   ZeroHalf: 1     1347   47,90%
      0     0     1506,4722   370     2890,0000   ZeroHalf: 1     1374   47,87%
      0     2     1506,4722   382     2890,0000     1506,4722     1374   47,87%
Elapsed time = 0,39 sec. (219,17 ticks, tree = 0,02 MB, solutions = 4)
   1466   992     2600,2207   123     2890,0000     1814,3544    58131   37,22%
   1729  1233        cutoff           2890,0000     1978,3030    78005   31,55%
   3569  2204     2602,9750   242     2890,0000     2221,4264   144141   23,13%

Performing restart 1

Repeating presolve.
Tried aggregator 2 times.
MIP Presolve eliminated 43 rows and 18 columns.
MIP Presolve added 48 rows and 0 columns.
MIP Presolve modified 54 coefficients.
Aggregator did 4 substitutions.
Reduced MIP has 411 rows, 378 columns, and 1471 nonzeros.
Reduced MIP has 378 binaries, 0 generals, 0 SOSs, and 0 indicators.
Presolve time = 0,00 sec. (1,97 ticks)
Tried aggregator 1 time.
Reduced MIP has 411 rows, 378 columns, and 1471 nonzeros.
Reduced MIP has 378 binaries, 0 generals, 0 SOSs, and 0 indicators.
Presolve time = 0,00 sec. (1,25 ticks)
Represolve time = 0,02 sec. (10,32 ticks)
   4547     0     1548,0631   378     2890,0000      Cuts: 25   215816   20,49%
   4547     0     1559,4640   378     2890,0000      Cuts: 17   215894   20,49%
   4547     0     1569,6935   378     2890,0000      Cuts: 10   215983   20,49%
   4547     0     1579,8996   378     2890,0000      Cuts: 12   216090   20,49%
   4547     2     1579,8996   378     2890,0000     2297,9677   216090   20,49%
   4553     5     1744,0974   361     2890,0000     2297,9677   217065   20,49%
   5109   337     2440,2729   225     2890,0000     2297,9677   243526   20,49%
   6430  1155     2152,3974   306     2890,0000     2297,9677   287270   20,49%
   7676  2433     2461,5691   301     2890,0000     2297,9677   336406   20,49%
   9102  3711     2886,9840   192     2890,0000     2297,9677   392904   20,49%

Performing restart 2

Repeating presolve.
Tried aggregator 1 time.
Reduced MIP has 411 rows, 378 columns, and 1471 nonzeros.
Reduced MIP has 378 binaries, 0 generals, 0 SOSs, and 0 indicators.
Presolve time = 0,00 sec. (0,88 ticks)
Tried aggregator 1 time.
Reduced MIP has 411 rows, 378 columns, and 1471 nonzeros.
Reduced MIP has 378 binaries, 0 generals, 0 SOSs, and 0 indicators.
Presolve time = 0,00 sec. (1,25 ticks)
Represolve time = 0,03 sec. (14,37 ticks)
  10186     0     1599,8664   378     2890,0000      Cuts: 10   444275   20,49%
  10186     0     1609,9465   378     2890,0000       Cuts: 8   444444   20,49%
  10186     0     1610,7793   378     2890,0000      Cuts: 12   444511   20,49%
  10186     0     1622,5815   378     2890,0000      Cuts: 17   444734   20,49%
  10186     0     1625,1341   378     2890,0000      Cuts: 27   444815   20,49%
  10186     0     1632,6759   378     2890,0000      Cuts: 16   445045   20,49%
  10186     0     1633,5153   378     2890,0000      Cuts: 55   445126   20,49%
  10186     2     1633,5153   377     2890,0000     2297,9677   445126   20,49%
Elapsed time = 4,27 sec. (3597,92 ticks, tree = 0,02 MB, solutions = 4)
  15639  3374        cutoff           2890,0000     2455,7071   669287   15,03%
  22136  6189     2843,5586   119     2890,0000     2616,8732   903985    9,45%
* 24430+ 7119                         2880,0000     2653,8212             7,85%
* 27852+ 7233                         2842,0000     2700,7050             4,97%
  28606  4849     2830,7433   264     2842,0000     2719,8938  1153801    4,30%

Clique cuts applied:  9
Cover cuts applied:  507
Flow cuts applied:  14
Mixed integer rounding cuts applied:  166
Zero-half cuts applied:  13
Lift and project cuts applied:  11
Gomory fractional cuts applied:  34

Root node processing (before b&c):
  Real time             =    0,37 sec. (218,68 ticks)
Parallel b&c, 16 threads:
  Real time             =    8,39 sec. (6784,78 ticks)
  Sync time (average)   =    2,11 sec.
  Wait time (average)   =    0,01 sec.
                          ------------
Total (root+branch&cut) =    8,76 sec. (7003,45 ticks)
